# Objective value = 37
WA1n 0
WA1p 1
WA2n 0
WA2p 0
WB1n 0
WB1p 1
WB2n 0
WB2p 0
WC1n 0
WC1p 1
WC2n 0
WC2p 0
WD1n 0
WD1p 1
WD2n 0
WD2p 0
WE1n 0
WE1p 1
WE2n 0
WE2p 0
WF1n 0
WF1p 1
WF2n 0
WF2p 0
WG1n 0
WG1p 1
WG2n 0
WG2p 0
WH1n 0
WH1p 1
WH2n 0
WH2p 0
WI1n 0
WI1p 1
WI2n 0
WI2p 0
WJ1n 0
WJ1p 1
WJ2n 0
WJ2p 0
WK1n 0
WK1p 1
WK2n 0
WK2p 0
WL1n 0
WL1p 1
WL2n 0
WL2p 0
WM1n 12
WM1p 0
WM2n 0
WM2p 0
WN1n 13
WN1p 0
WN2n 0
WN2p 0
WT1n 0
WT1p 0
WT2n 0
WT2p 0
100 112
a 1
b 1
c 1
d 1
e 1
f 1
g 1
h 1
i 1
j 1
k 1
l 1
m 1
n 1
o 1
p 1
q 1
r 1
s 1
t 1
u 1
v 1
w 1
x 1
y 1
z 1
aa 0
ab 0
ac 1
ad 1
